p cnf 15 30
12 15 10 0
9 7 10 0
-1 -7 15 0
-9 13 -6 0
1 -8 -2 0
-14 3 5 0
11 8 6 0
13 8 9 0
3 -7 10 0
7 -6 -9 0
2 -9 10 0
13 -7 2 0
-10 -8 -1 0
8 -3 -9 0
13 -4 -15 0
4 14 7 0
-6 9 -3 0
2 -14 10 0
12 -2 6 0
7 6 -4 0
-6 8 -15 0
1 9 -14 0
-8 -15 12 0
-3 -15 -10 0
14 7 10 0
6 -2 8 0
10 6 -11 0
-12 11 7 0
-9 4 1 0
7 -8 14 0
